p cnf 1001
-17 -311
-18 -314
-19 -317
-20 -320
-21 -323
-22 -326
-23 -329
-24 -332
-25 -335
-26 -338
-27 -341
-28 -344
-29 -347
-30 -350
-31 -353
-32 -356
-33 357
-34 358
-35 359
-36 360
-37 361
-38 362
-39 -18
-39 -19
18 19 39
-40 -20
-40 -21
20 21 40
-41 -22
-41 -23
22 23 41
-42 -24
-42 -25
24 25 42
-43 -26
-43 -27
26 27 43
-44 -28
-44 -29
28 29 44
-45 -30
-45 -31
30 31 45
-46 -32
-46 -33
32 33 46
-47 -34
-47 -35
34 35 47
-48 -36
-48 -37
36 37 48
-49 39
-49 40
-39 -40 49
-50 41
-50 42
-41 -42 50
-51 43
-51 44
-43 -44 51
-52 45
-52 46
-45 -46 52
-53 47
-53 48
-47 -48 53
-54 49
-54 50
-49 -50 54
-55 51
-55 52
-51 -52 55
-56 -38
-56 53
38 -53 56
-57 54
-57 55
-54 -55 57
-58 56
-58 57
-56 -57 58
-59 -17
-59 18
17 -18 59
-60 17
-60 -18
-17 18 60
-61 -59
-61 -60
59 60 61
-62 17
-62 18
-17 -18 62
-63 -17
-63 -61
17 61 63
-64 17
-64 61
-17 -61 64
-65 -63
-65 -64
63 64 65
-66 17
-66 -61
-17 61 66
-67 -62
-67 -66
62 66 67
-68 -18
-68 19
18 -19 68
-69 18
-69 -19
-18 19 69
-70 -68
-70 -69
68 69 70
-71 18
-71 19
-18 -19 71
-72 67
-72 -70
-67 70 72
-73 -67
-73 70
67 -70 73
-74 -72
-74 -73
72 73 74
-75 -67
-75 -70
67 70 75
-76 -71
-76 -75
71 75 76
-77 -19
-77 20
19 -20 77
-78 19
-78 -20
-19 20 78
-79 -77
-79 -78
77 78 79
-80 19
-80 20
-19 -20 80
-81 76
-81 -79
-76 79 81
-82 -76
-82 79
76 -79 82
-83 -81
-83 -82
81 82 83
-84 -76
-84 -79
76 79 84
-85 -80
-85 -84
80 84 85
-86 -20
-86 21
20 -21 86
-87 20
-87 -21
-20 21 87
-88 -86
-88 -87
86 87 88
-89 20
-89 21
-20 -21 89
-90 85
-90 -88
-85 88 90
-91 -85
-91 88
85 -88 91
-92 -90
-92 -91
90 91 92
-93 -85
-93 -88
85 88 93
-94 -89
-94 -93
89 93 94
-95 -21
-95 22
21 -22 95
-96 21
-96 -22
-21 22 96
-97 -95
-97 -96
95 96 97
-98 21
-98 22
-21 -22 98
-99 94
-99 -97
-94 97 99
-100 -94
-100 97
94 -97 100
-101 -99
-101 -100
99 100 101
-102 -94
-102 -97
94 97 102
-103 -98
-103 -102
98 102 103
-104 -22
-104 23
22 -23 104
-105 22
-105 -23
-22 23 105
-106 -104
-106 -105
104 105 106
-107 22
-107 23
-22 -23 107
-108 103
-108 -106
-103 106 108
-109 -103
-109 106
103 -106 109
-110 -108
-110 -109
108 109 110
-111 -103
-111 -106
103 106 111
-112 -107
-112 -111
107 111 112
-113 -23
-113 24
23 -24 113
-114 23
-114 -24
-23 24 114
-115 -113
-115 -114
113 114 115
-116 23
-116 24
-23 -24 116
-117 112
-117 -115
-112 115 117
-118 -112
-118 115
112 -115 118
-119 -117
-119 -118
117 118 119
-120 -112
-120 -115
112 115 120
-121 -116
-121 -120
116 120 121
-122 -24
-122 25
24 -25 122
-123 24
-123 -25
-24 25 123
-124 -122
-124 -123
122 123 124
-125 24
-125 25
-24 -25 125
-126 121
-126 -124
-121 124 126
-127 -121
-127 124
121 -124 127
-128 -126
-128 -127
126 127 128
-129 -121
-129 -124
121 124 129
-130 -125
-130 -129
125 129 130
-131 -25
-131 26
25 -26 131
-132 25
-132 -26
-25 26 132
-133 -131
-133 -132
131 132 133
-134 25
-134 26
-25 -26 134
-135 130
-135 -133
-130 133 135
-136 -130
-136 133
130 -133 136
-137 -135
-137 -136
135 136 137
-138 -130
-138 -133
130 133 138
-139 -134
-139 -138
134 138 139
-140 -26
-140 27
26 -27 140
-141 26
-141 -27
-26 27 141
-142 -140
-142 -141
140 141 142
-143 26
-143 27
-26 -27 143
-144 139
-144 -142
-139 142 144
-145 -139
-145 142
139 -142 145
-146 -144
-146 -145
144 145 146
-147 -139
-147 -142
139 142 147
-148 -143
-148 -147
143 147 148
-149 -27
-149 28
27 -28 149
-150 27
-150 -28
-27 28 150
-151 -149
-151 -150
149 150 151
-152 27
-152 28
-27 -28 152
-153 148
-153 -151
-148 151 153
-154 -148
-154 151
148 -151 154
-155 -153
-155 -154
153 154 155
-156 -148
-156 -151
148 151 156
-157 -152
-157 -156
152 156 157
-158 -28
-158 29
28 -29 158
-159 28
-159 -29
-28 29 159
-160 -158
-160 -159
158 159 160
-161 28
-161 29
-28 -29 161
-162 157
-162 -160
-157 160 162
-163 -157
-163 160
157 -160 163
-164 -162
-164 -163
162 163 164
-165 -157
-165 -160
157 160 165
-166 -161
-166 -165
161 165 166
-167 -29
-167 30
29 -30 167
-168 29
-168 -30
-29 30 168
-169 -167
-169 -168
167 168 169
-170 29
-170 30
-29 -30 170
-171 166
-171 -169
-166 169 171
-172 -166
-172 169
166 -169 172
-173 -171
-173 -172
171 172 173
-174 -166
-174 -169
166 169 174
-175 -170
-175 -174
170 174 175
-176 -30
-176 31
30 -31 176
-177 30
-177 -31
-30 31 177
-178 -176
-178 -177
176 177 178
-179 30
-179 31
-30 -31 179
-180 175
-180 -178
-175 178 180
-181 -175
-181 178
175 -178 181
-182 -180
-182 -181
180 181 182
-183 -175
-183 -178
175 178 183
-184 -179
-184 -183
179 183 184
-185 -31
-185 32
31 -32 185
-186 31
-186 -32
-31 32 186
-187 -185
-187 -186
185 186 187
-188 31
-188 32
-31 -32 188
-189 184
-189 -187
-184 187 189
-190 -184
-190 187
184 -187 190
-191 -189
-191 -190
189 190 191
-192 -184
-192 -187
184 187 192
-193 -188
-193 -192
188 192 193
-194 -32
-194 33
32 -33 194
-195 32
-195 -33
-32 33 195
-196 -194
-196 -195
194 195 196
-197 32
-197 33
-32 -33 197
-198 193
-198 -196
-193 196 198
-199 -193
-199 196
193 -196 199
-200 -198
-200 -199
198 199 200
-201 -193
-201 -196
193 196 201
-202 -197
-202 -201
197 201 202
-203 -33
-203 34
33 -34 203
-204 33
-204 -34
-33 34 204
-205 -203
-205 -204
203 204 205
-206 33
-206 34
-33 -34 206
-207 202
-207 -205
-202 205 207
-208 -202
-208 205
202 -205 208
-209 -207
-209 -208
207 208 209
-210 -202
-210 -205
202 205 210
-211 -206
-211 -210
206 210 211
-212 -34
-212 35
34 -35 212
-213 34
-213 -35
-34 35 213
-214 -212
-214 -213
212 213 214
-215 34
-215 35
-34 -35 215
-216 211
-216 -214
-211 214 216
-217 -211
-217 214
211 -214 217
-218 -216
-218 -217
216 217 218
-219 -211
-219 -214
211 214 219
-220 -215
-220 -219
215 219 220
-221 -35
-221 36
35 -36 221
-222 35
-222 -36
-35 36 222
-223 -221
-223 -222
221 222 223
-224 35
-224 36
-35 -36 224
-225 220
-225 -223
-220 223 225
-226 -220
-226 223
220 -223 226
-227 -225
-227 -226
225 226 227
-228 -220
-228 -223
220 223 228
-229 -224
-229 -228
224 228 229
-230 -36
-230 37
36 -37 230
-231 36
-231 -37
-36 37 231
-232 -230
-232 -231
230 231 232
-233 36
-233 37
-36 -37 233
-234 229
-234 -232
-229 232 234
-235 -229
-235 232
229 -232 235
-236 -234
-236 -235
234 235 236
-237 -229
-237 -232
229 232 237
-238 -233
-238 -237
233 237 238
-239 -37
-239 38
37 -38 239
-240 37
-240 -38
-37 38 240
-241 -239
-241 -240
239 240 241
-242 37
-242 38
-37 -38 242
-243 238
-243 -241
-238 241 243
-244 -238
-244 241
238 -241 244
-245 -243
-245 -244
243 244 245
-246 -238
-246 -241
238 241 246
-247 -242
-247 -246
242 246 247
-248 17
-248 -65
-17 65 248
-249 -17
-249 19
17 -19 249
-250 -248
-250 -249
248 249 250
-251 17
-251 -74
-17 74 251
-252 -17
-252 20
17 -20 252
-253 -251
-253 -252
251 252 253
-254 17
-254 -83
-17 83 254
-255 -17
-255 21
17 -21 255
-256 -254
-256 -255
254 255 256
-257 17
-257 -92
-17 92 257
-258 -17
-258 22
17 -22 258
-259 -257
-259 -258
257 258 259
-260 17
-260 -101
-17 101 260
-261 -17
-261 23
17 -23 261
-262 -260
-262 -261
260 261 262
-263 17
-263 -110
-17 110 263
-264 -17
-264 24
17 -24 264
-265 -263
-265 -264
263 264 265
-266 17
-266 -119
-17 119 266
-267 -17
-267 25
17 -25 267
-268 -266
-268 -267
266 267 268
-269 17
-269 -128
-17 128 269
-270 -17
-270 26
17 -26 270
-271 -269
-271 -270
269 270 271
-272 17
-272 -137
-17 137 272
-273 -17
-273 27
17 -27 273
-274 -272
-274 -273
272 273 274
-275 17
-275 -146
-17 146 275
-276 -17
-276 28
17 -28 276
-277 -275
-277 -276
275 276 277
-278 17
-278 -155
-17 155 278
-279 -17
-279 29
17 -29 279
-280 -278
-280 -279
278 279 280
-281 17
-281 -164
-17 164 281
-282 -17
-282 30
17 -30 282
-283 -281
-283 -282
281 282 283
-284 17
-284 -173
-17 173 284
-285 -17
-285 31
17 -31 285
-286 -284
-286 -285
284 285 286
-287 17
-287 -182
-17 182 287
-288 -17
-288 32
17 -32 288
-289 -287
-289 -288
287 288 289
-290 17
-290 -191
-17 191 290
-291 -17
-291 33
17 -33 291
-292 -290
-292 -291
290 291 292
-293 17
-293 -200
-17 200 293
-294 -17
-294 34
17 -34 294
-295 -293
-295 -294
293 294 295
-296 17
-296 -209
-17 209 296
-297 -17
-297 35
17 -35 297
-298 -296
-298 -297
296 297 298
-299 17
-299 -218
-17 218 299
-300 -17
-300 36
17 -36 300
-301 -299
-301 -300
299 300 301
-302 17
-302 -227
-17 227 302
-303 -17
-303 37
17 -37 303
-304 -302
-304 -303
302 303 304
-305 17
-305 -236
-17 236 305
-306 -17
-306 38
17 -38 306
-307 -305
-307 -306
305 306 307
-308 17
-308 -245
-17 245 308
-309 1
-309 58
-1 -58 309
-310 -58
-310 59
58 -59 310
-311 -309
-311 -310
309 310 311
-312 2
-312 58
-2 -58 312
-313 -58
-313 -250
58 250 313
-314 -312
-314 -313
312 313 314
-315 3
-315 58
-3 -58 315
-316 -58
-316 -253
58 253 316
-317 -315
-317 -316
315 316 317
-318 4
-318 58
-4 -58 318
-319 -58
-319 -256
58 256 319
-320 -318
-320 -319
318 319 320
-321 5
-321 58
-5 -58 321
-322 -58
-322 -259
58 259 322
-323 -321
-323 -322
321 322 323
-324 6
-324 58
-6 -58 324
-325 -58
-325 -262
58 262 325
-326 -324
-326 -325
324 325 326
-327 7
-327 58
-7 -58 327
-328 -58
-328 -265
58 265 328
-329 -327
-329 -328
327 328 329
-330 8
-330 58
-8 -58 330
-331 -58
-331 -268
58 268 331
-332 -330
-332 -331
330 331 332
-333 9
-333 58
-9 -58 333
-334 -58
-334 -271
58 271 334
-335 -333
-335 -334
333 334 335
-336 10
-336 58
-10 -58 336
-337 -58
-337 -274
58 274 337
-338 -336
-338 -337
336 337 338
-339 11
-339 58
-11 -58 339
-340 -58
-340 -277
58 277 340
-341 -339
-341 -340
339 340 341
-342 12
-342 58
-12 -58 342
-343 -58
-343 -280
58 280 343
-344 -342
-344 -343
342 343 344
-345 13
-345 58
-13 -58 345
-346 -58
-346 -283
58 283 346
-347 -345
-347 -346
345 346 347
-348 14
-348 58
-14 -58 348
-349 -58
-349 -286
58 286 349
-350 -348
-350 -349
348 349 350
-351 15
-351 58
-15 -58 351
-352 -58
-352 -289
58 289 352
-353 -351
-353 -352
351 352 353
-354 16
-354 58
-16 -58 354
-355 -58
-355 -292
58 292 355
-356 -354
-356 -355
354 355 356
-357 -58
-357 -295
58 295 357
-358 -58
-358 -298
58 298 358
-359 -58
-359 -301
58 301 359
-360 -58
-360 -304
58 304 360
-361 -58
-361 -307
58 307 361
-362 -58
-362 308
58 -308 362
-363 -38
-363 247
38 -247 363
-364 17
-364 -363
-17 363 364
364
